c defined variables: 
p cnf 86 57
a 1 2 3 4 5 6 7 8 9 10 11 12 13 14 0
d 15 1 8 0
d 16 5 9 10 13 14 0
d 17 1 3 0
d 18 8 10 0
d 19 2 10 11 13 0
d 20 3 6 10 0
d 21 1 4 6 0
d 22 12 0
d 23 14 0
d 24 1 2 3 0
d 25 2 3 7 13 14 0
d 26 2 5 6 0
d 27 1 2 4 14 0
d 28 3 7 9 13 0
5 -8 -16 17 -18 0
-8 -11 -15 16 -19 0
-2 13 -16 18 -19 0
3 -10 15 17 19 0
3 -5 16 18 20 0
5 9 16 -17 21 0
10 11 17 -19 -22 0
-10 12 -15 -16 22 0
-6 -9 -16 -20 22 0
1 -3 15 17 -23 0
3 -5 16 17 23 0
2 -11 16 -19 23 0
-1 -11 -18 19 24 0
-2 14 16 20 24 0
-6 -8 18 20 24 0
2 3 -15 19 -25 0
7 14 -16 19 -25 0
2 10 -19 20 -25 0
3 10 -19 20 -25 0
-1 4 -17 -21 -25 0
-4 13 -21 -23 -25 0
-1 11 19 -21 25 0
-7 13 22 24 25 0
9 -13 16 -18 -26 0
2 13 16 -22 -26 0
6 -12 -19 -22 -26 0
-6 8 18 23 -26 0
5 -14 -20 -25 -26 0
2 -3 -17 25 -26 0
2 -5 23 25 -26 0
2 -6 24 25 -26 0
-10 -13 -16 19 26 0
-2 -6 -19 -22 26 0
-2 -3 -18 -24 26 0
5 6 -16 -25 26 0
2 14 18 19 -27 0
1 -4 15 -23 -27 0
-3 -14 -21 25 -27 0
12 14 -20 22 27 0
-2 -14 16 -24 27 0
-10 -11 -19 25 27 0
-1 2 21 -26 27 0
-7 -8 15 -16 -28 0
-8 10 18 -19 -28 0
10 14 -20 -23 -28 0
1 9 21 23 -28 0
6 -9 21 -25 -28 0
-5 6 15 -26 -28 0
7 -9 -17 27 -28 0
6 9 20 27 -28 0
-5 -7 15 -16 28 0
2 7 19 -20 28 0
8 -9 -18 21 28 0
13 14 16 -22 28 0
-7 9 21 -23 28 0
6 13 -21 27 28 0
4 -9 -24 27 28 0
